10
1 0 1
2 0 8
2 1 22
3 0 68
3 1 80
3 2 36
4 0 62
4 1 71
4 2 38
4 3 67
5 0 10
5 1 5
5 2 59
5 3 55
5 4 15
6 0 2
6 1 71
6 2 50
6 3 52
6 4 14
6 5 50
7 0 50
7 1 28
7 2 62
7 3 54
7 4 79
7 5 17
7 6 40
8 0 10
8 1 71
8 2 19
8 3 77
8 4 12
8 5 29
8 6 11
8 7 35
9 0 9
9 1 67
9 2 52
9 3 56
9 4 66
9 5 37
9 6 49
9 7 72
9 8 48
